es_decr_min = int_search([es[3],es[4],es[25],es[23],es[8],es[21],es[2],es[15],es[16],es[10],es[27],es[13],es[19],es[28],es[22],es[26],es[18],es[12],es[5],es[24],es[20],es[17],es[1],es[9],es[7],es[14],es[6],es[11],vs[2],vs[14],vs[4],vs[5],vs[19],vs[20],vs[7],vs[21],vs[12],vs[10],vs[6],vs[11],vs[18],vs[15],vs[3],vs[13],vs[16],vs[9],vs[17],vs[1],vs[8]], input_order, indomain_min, complete);
nbV = 21;
nbE = 28;
nbT = 10;
adj = [|true,false,false,false,false,false,false,false,false,false,false,false,false,false,false,false,false,false,false,false,false,false,false,false,false,false,false,false
|false,true,true,false,false,false,false,false,false,false,false,false,false,false,false,false,false,false,false,false,false,false,false,false,false,false,false,false
|false,false,false,false,false,false,false,false,false,false,false,false,false,false,false,false,true,true,true,false,false,false,false,false,false,false,false,false
|false,false,false,true,true,false,false,false,false,false,false,false,false,false,false,false,false,false,false,false,false,false,false,false,false,false,false,false
|false,false,false,false,false,false,false,false,false,false,false,false,false,false,false,false,false,false,false,false,false,false,false,false,true,true,false,false
|false,false,false,false,false,false,false,false,false,false,false,true,true,false,false,false,false,false,false,false,false,false,false,false,false,false,false,false
|false,false,false,false,false,false,false,false,false,false,false,false,false,false,false,false,false,false,false,false,false,true,true,true,false,false,false,false
|false,false,false,false,false,false,false,false,false,false,true,false,false,false,false,false,false,false,false,false,false,false,false,false,false,false,false,false
|false,false,false,false,false,false,false,false,false,false,false,false,false,false,false,false,false,true,false,true,false,false,false,true,false,false,false,false
|false,false,false,false,false,false,false,false,false,false,false,false,false,false,false,false,false,false,false,false,false,false,false,false,false,false,false,true
|true,true,false,false,true,false,false,false,false,false,false,false,false,false,false,false,false,false,false,false,false,false,false,false,false,false,false,false
|false,false,true,false,false,true,true,false,false,false,false,false,true,false,false,false,false,false,false,false,false,false,false,false,false,false,false,false
|false,false,false,false,false,true,false,true,true,false,false,false,false,false,false,false,false,false,false,false,false,false,false,false,false,false,false,false
|false,false,false,true,false,false,false,true,false,true,false,false,false,false,false,false,false,false,false,false,false,false,false,false,false,false,false,false
|false,false,false,false,false,false,false,false,false,true,true,false,false,false,false,false,false,false,true,false,false,false,false,false,false,false,false,false
|false,false,false,false,false,false,true,false,false,false,false,true,false,true,true,false,false,false,false,false,false,false,false,false,false,false,false,false
|false,false,false,false,false,false,false,false,true,false,false,false,false,true,false,true,false,false,false,false,false,false,false,false,false,false,false,false
|false,false,false,false,false,false,false,false,false,false,false,false,false,false,false,false,true,false,false,true,true,false,false,false,false,false,false,false
|false,false,false,false,false,false,false,false,false,false,false,false,false,false,true,true,false,false,false,false,false,false,true,false,false,true,false,false
|false,false,false,false,false,false,false,false,false,false,false,false,false,false,false,false,false,false,false,false,false,true,false,false,true,false,true,false
|false,false,false,false,false,false,false,false,false,false,false,false,false,false,false,false,false,false,false,false,true,false,false,false,false,false,true,true
|];
endnodes = [|true,false,false,false,false,false,false,false,false,false,true,false,false,false,false,false,false,false,false,false,false
|false,true,false,false,false,false,false,false,false,false,true,false,false,false,false,false,false,false,false,false,false
|false,true,false,false,false,false,false,false,false,false,false,true,false,false,false,false,false,false,false,false,false
|false,false,false,true,false,false,false,false,false,false,false,false,false,true,false,false,false,false,false,false,false
|false,false,false,true,false,false,false,false,false,false,true,false,false,false,false,false,false,false,false,false,false
|false,false,false,false,false,false,false,false,false,false,false,true,true,false,false,false,false,false,false,false,false
|false,false,false,false,false,false,false,false,false,false,false,true,false,false,false,true,false,false,false,false,false
|false,false,false,false,false,false,false,false,false,false,false,false,true,true,false,false,false,false,false,false,false
|false,false,false,false,false,false,false,false,false,false,false,false,true,false,false,false,true,false,false,false,false
|false,false,false,false,false,false,false,false,false,false,false,false,false,true,true,false,false,false,false,false,false
|false,false,false,false,false,false,false,true,false,false,false,false,false,false,true,false,false,false,false,false,false
|false,false,false,false,false,true,false,false,false,false,false,false,false,false,false,true,false,false,false,false,false
|false,false,false,false,false,true,false,false,false,false,false,true,false,false,false,false,false,false,false,false,false
|false,false,false,false,false,false,false,false,false,false,false,false,false,false,false,true,true,false,false,false,false
|false,false,false,false,false,false,false,false,false,false,false,false,false,false,false,true,false,false,true,false,false
|false,false,false,false,false,false,false,false,false,false,false,false,false,false,false,false,true,false,true,false,false
|false,false,true,false,false,false,false,false,false,false,false,false,false,false,false,false,false,true,false,false,false
|false,false,true,false,false,false,false,false,true,false,false,false,false,false,false,false,false,false,false,false,false
|false,false,true,false,false,false,false,false,false,false,false,false,false,false,true,false,false,false,false,false,false
|false,false,false,false,false,false,false,false,true,false,false,false,false,false,false,false,false,true,false,false,false
|false,false,false,false,false,false,false,false,false,false,false,false,false,false,false,false,false,true,false,false,true
|false,false,false,false,false,false,true,false,false,false,false,false,false,false,false,false,false,false,false,true,false
|false,false,false,false,false,false,true,false,false,false,false,false,false,false,false,false,false,false,true,false,false
|false,false,false,false,false,false,true,false,true,false,false,false,false,false,false,false,false,false,false,false,false
|false,false,false,false,true,false,false,false,false,false,false,false,false,false,false,false,false,false,false,true,false
|false,false,false,false,true,false,false,false,false,false,false,false,false,false,false,false,false,false,true,false,false
|false,false,false,false,false,false,false,false,false,false,false,false,false,false,false,false,false,false,false,true,true
|false,false,false,false,false,false,false,false,false,true,false,false,false,false,false,false,false,false,false,false,true
|];
terminals = {1,2,3,4,5,6,7,8,9,10};
ws = [413465,2354247,5123726,4641462,969230,110746,324546,2730467,324546,1792517,22484,1255554,1580100,110746,2321387,2210641,431823,1256823,1526309,825000,2390803,1332596,3408836,866203,3408836,1332596,1595300,1490005];
